27 27
21
3 3 24 0
3 4 24 23
3 5 21 22
3 6 8 21
3 7 11 20
3 8 14 19
3 9 24 14
3 10 21 12
3 11 24 3
3 12 21 0
3 19 14 0
3 20 11 0
3 21 8 0
4 3 0 24
4 4 0 20
4 6 17 21
4 7 17 14
4 8 4 19
4 14 17 0
4 19 4 0
4 20 0 0
